NAME: sim-grid-B-25
TYPE: TSP
COMMENT: Semi-regular Grid
DIMENSION: 25
EDGE_WEIGHT_TYPE: EUC_2D
NODE_COORD_SECTION
1 550 50
2 1550 50
3 100 150
4 550 150
5 750 150
6 950 150
7 1100 150
8 1300 150
9 1350 150
10 1500 150
11 250 300
12 1100 300
13 1300 300
14 750 400
15 1100 400
16 1300 400
17 50 550
18 550 550
19 900 550
20 1050 550
21 1550 550
22 400 650
23 550 650
24 1400 650
25 1550 650
EOF
